# Objective value = 95602
x66 1
x67 0
x68 0
x69 0
x70 0
x71 1
x72 0
x73 0
x74 1
x75 1
x76 0
x77 0
x78 1
x79 1
x80 1
x81 0
x82 0
x83 1
x84 1
x85 1
x86 1
x87 1
x88 1
x89 0
x90 0
x91 0
x92 0
x93 0
x94 0
x95 0
x96 1
x97 1
x98 1
x99 1
x100 1
x101 0
x102 0
x103 0
x104 1
x105 1
x106 1
x107 1
x108 1
x109 0
x110 1
x111 0
x112 0
x113 1
x114 1
x115 1
x116 1
x117 1
x118 0
x119 1
x120 1
x121 0
x122 0
x123 1
x124 1
x125 1
x126 1
x127 1
x128 0
x129 1
x130 1
x131 1
x132 1
x133 1
x134 0
x135 0
x136 0
x137 0
x138 0
x139 1
x140 0
x141 0
x142 0
x143 0
x144 0
x145 0
x146 1
x147 1
x148 1
x149 1
x150 1
x151 0
x152 1
x153 1
x154 1
x155 1
x156 0
x157 1
x158 1
x159 0
x160 0
x161 0
x162 0
x163 0
x164 1
x165 0
x166 0
x167 0
x168 0
x169 1
x170 0
x171 0
x172 0
x173 1
x174 1
x175 1
x176 1
x177 1
x178 0
x179 1
x180 1
x181 1
x182 1
x183 0
x184 1
x185 0
x186 0
x187 0
x188 1
x189 1
x190 1
x191 1
x192 1
x193 0
x194 1
x195 1
x196 1
x197 1
x198 0
x199 1
x200 0
x201 1
x202 0
x203 0
x204 1
x205 1
x206 1
x207 1
x208 1
x209 1
x210 1
x211 0
x212 0
x213 0
x214 0
x215 1
x216 0
x217 0
x218 0
x219 1
x220 1
x221 1
x222 1
x223 1
x224 1
x225 0
x226 0
x227 0
x228 1
x229 1
x230 1
x231 0
x232 1
x233 1
x234 0
x235 1
x236 0
x237 1
x238 1
x239 0
x240 1
x241 1
x242 1
x243 1
x244 0
x245 1
x246 1
x247 0
x248 1
x249 1
x250 0
x251 1
x252 1
x253 0
x254 1
x255 0
x256 1
x257 1
x258 1
x259 0
x260 1
x261 1
x262 0
x263 1
x264 1
x265 1
x266 1
x267 0
x268 1
x269 1
x270 1
x271 1
x272 1
x273 0
x274 0
x275 1
x276 0
x277 1
x278 0
x279 0
x280 1
x281 0
x282 0
x283 0
x284 0
x285 0
x286 1
x287 1
x288 0
x289 0
x290 0
x291 0
x292 1
x293 0
x294 1
x295 0
x296 0
x297 0
x298 0
x299 0
x300 1
x301 0
x302 1
x303 1
x304 1
x305 1
x306 1
x307 0
x308 1
x309 0
x310 1
x311 1
x312 1
x313 1
x314 1
x315 0
x316 0
x317 0
x318 1
x319 0
x320 1
x321 1
x322 1
x323 0
x324 1
x325 0
x326 1
x327 1
x328 1
x329 1
x330 1
x331 0
x332 0
x333 1
x334 0
x335 1
x336 1
x337 1
x338 1
x339 1
x340 0
x341 1
x342 0
x343 1
x344 1
x345 1
x346 1
x347 1
x348 0
x349 0
x350 1
x351 1
x352 0
x353 0
x354 1
x355 1
x356 0
x357 1
x358 1
x359 1
x360 0
x361 1
x362 1
x363 1
x364 1
x365 1
x366 0
x367 0
x368 1
x369 1
x370 1
x371 0
x372 1
x373 1
x374 1
x375 0
x376 1
x377 1
x378 1
x379 0
x380 1
x381 1
x382 1
x383 1
x384 1
x385 0
x386 0
x387 1
x388 1
x389 1
x390 1
x391 1
x392 0
x393 1
x394 0
x395 1
x396 0
x397 0
x398 0
x399 1
x400 0
x401 0
x402 0
x403 0
x404 0
x405 1
x406 1
x407 0
x408 0
x409 0
x410 0
x411 0
x412 0
x413 1
x414 1
x415 1
x416 0
x417 1
x418 1
x419 1
x420 0
x421 1
x422 1
x423 1
x424 1
x425 1
x426 0
x427 0
x428 1
x429 1
x430 1
x431 1
x432 1
x433 0
x434 0
x435 0
x436 1
x437 1
x438 1
x439 1
x440 1
x441 0
x442 1
x443 1
x444 1
x445 0
x446 0
x447 1
x448 1
x449 1
x450 1
x451 1
x452 0
x453 1
x454 1
x455 1
x456 1
x457 1
x458 1
x459 0
x460 0
x461 0
x462 1
x463 0
x464 1
x465 0
x466 0
x467 0
x468 0
x469 0
x470 0
x471 0
x472 1
x473 1
x474 1
x475 1
x476 1
x477 0
x478 1
x479 1
x480 0
x481 1
x482 1
x483 0
x484 1
x485 1
x486 0
x487 0
x488 1
x489 0
x490 0
x491 0
x492 0
x493 0
x494 1
x495 0
x496 0
x497 1
x498 0
x499 0
x500 1
x501 1
x502 1
x503 0
x504 1
x505 0
x506 1
x507 1
x508 1
x509 0
x510 1
x511 1
x512 0
x513 1
x514 0
x515 0
x516 1
x517 1
x518 1
x519 0
x520 1
x521 1
x522 1
x523 1
x524 1
x525 0
x526 1
x527 1
x528 0
x529 1
x530 0
x531 1
x532 0
x533 1
x534 1
x535 1
x536 0
x537 1
x538 1
x539 1
x540 1
x541 1
x542 0
x543 1
x544 1
x545 0
x546 1
x547 0
x548 1
x549 1
x550 0
x551 1
x552 1
x553 1
x554 0
x555 1
x556 0
x557 1
x558 1
x559 1
x560 1
x561 1
x562 1
x563 0
x564 1
x565 0
x566 1
x567 1
x568 1
x569 1
x570 0
x571 0
x572 0
x573 1
x574 1
x575 1
x576 0
x577 0
x578 0
x579 0
x580 0
x581 0
x582 1
x583 0
x584 1
x585 0
x586 0
x587 0
x588 0
x589 0
x590 1
x591 1
x592 1
x593 0
x594 1
x595 0
x596 1
x597 1
x598 1
x599 0
x600 1
x601 1
x602 0
x603 1
x604 0
x605 1
x606 1
x607 1
x608 1
x609 0
x610 0
x611 1
x612 1
x613 1
x614 0
x615 1
x616 0
x617 1
x618 1
x619 1
x620 1
x621 1
x622 1
x623 0
x624 1
x625 0
x626 1
x627 1
x628 1
x629 1
x630 0
x631 1
x632 0
x633 1
x634 1
x635 0
x636 1
x637 1
x638 0
x639 1
x640 1
x641 0
x642 1
x643 1
x644 1
x645 0
x646 1
x647 0
x648 1
x649 1
x650 1
x651 1
x652 0
x653 1
x654 1
x655 0
x656 1
x657 1
x658 0
x659 1
x660 1
x661 1
x662 1
x663 1
x664 0
x665 1
x666 1
x667 1
x668 0
x669 1
x670 0
x671 1
x672 1
x673 1
x674 1
x675 0
x676 1
x677 1
x678 1
x679 0
x680 1
x681 1
x682 0
x683 1
x684 1
x685 1
x686 1
x687 1
x688 0
x689 1
x690 1
x691 1
x692 0
x693 1
x694 0
x695 1
x696 1
x697 1
x698 1
x699 0
x700 1
x701 1
x702 1
x703 1
x704 1
x705 1
x706 0
x707 1
x708 0
x709 0
x710 0
x711 0
x712 0
x713 1
x714 0
x715 0
x716 0
x717 1
x718 0
x719 1
x720 0
x721 0
x722 0
x723 0
x724 1
x725 0
x726 0
x727 0
x728 0
x729 0
x730 0
x731 0
x732 1
x733 1
x734 1
x735 1
x736 1
x737 0
x738 1
x739 1
x740 1
x741 1
x742 1
x743 0
x744 1
x745 1
x746 1
x747 0
x748 0
x749 1
x750 1
x751 1
x752 1
x753 1
x754 0
x755 1
x756 1
x757 1
x758 1
x759 1
x760 0
x761 1
x762 0
x763 1
x764 1
x765 0
x766 0
x767 1
x768 1
x769 1
x770 0
x771 1
x772 0
x773 1
x774 1
x775 1
x776 1
x777 1
x778 0
x779 1
x780 1
x781 1
x782 1
x783 1
x784 1
x785 1
x786 0
x787 0
x788 0
x789 0
x790 0
x791 1
x792 0
x793 0
x794 1
x795 0
x796 0
x797 1
x798 0
x799 0
x800 1
x801 0
x802 0
x803 0
x804 0
x805 0
x806 1
x807 1
x808 0
x809 1
x810 1
x811 1
x812 1
x813 1
x814 0
x815 0
x816 1
x817 1
x818 1
x819 1
x820 1
x821 1
x822 1
x823 1
x824 0
x825 1
x826 0
x827 0
x828 0
x829 1
x830 0
x831 1
x832 0
x833 0
x834 0
x835 1
x836 1
x837 0
x838 0
x839 0
x840 1
x841 0
x842 0
x843 0
x844 0
x845 1
x846 0
x847 0
x848 1
x849 1
x850 1
x851 0
x852 1
x853 1
x854 1
x855 1
x856 1
x857 0
x858 0
x859 1
x860 1
x861 1
x862 1
x863 1
x864 1
x865 1
x866 1
x867 0
x868 1
x869 0
x870 0
x871 1
x872 1
x873 1
x874 0
x875 1
x876 1
x877 1
x878 1
x879 1
x880 0
x881 0
x882 1
x883 1
x884 1
x885 1
x886 0
x887 1
x888 1
x889 1
x890 0
x891 1
x892 0
x893 1
x894 0
x895 1
x896 1
x897 1
x898 0
x899 1
x900 0
x901 1
x902 1
x903 1
x904 1
x905 1
x906 0
x907 1
x908 0
x909 1
x910 1
x911 1
x912 1
x913 1
x914 0
x915 1
x916 0
x917 1
x918 1
x919 0
x920 1
x921 1
x922 1
x923 0
x924 0
x925 0
x926 1
x927 1
x928 1
x929 1
x930 1
x931 1
x932 1
x933 0
x934 1
x935 1
x936 1
x937 1
x938 1
x939 0
x940 1
x941 0
x942 1
x943 1
x944 1
x945 1
x946 0
x947 0
x948 0
x949 1
x950 0
x951 1
x952 0
x953 0
x954 0
x955 1
x956 1
x957 0
x958 0
x959 1
x960 0
x961 0
x962 0
x963 0
x964 0
x965 1
x966 0
x967 1
x968 0
x969 0
x970 0
x971 0
x972 0
x973 1
x974 1
x975 1
x976 0
x977 1
x978 0
x979 1
x980 1
x981 1
x982 1
x983 1
x984 1
x985 1
x986 0
x987 1
x988 1
x989 1
x990 1
x991 1
x992 0
x993 1
x994 0
x995 1
x996 1
x997 1
x998 1
x999 0
x1000 1
x1001 0
x1002 0
x1003 1
x1004 0
x1005 0
x1006 1
x1007 0
x1008 0
x1009 1
x1010 0
x1011 0
x1012 1
x1013 0
x1014 0
x1015 0
x1016 1
x1017 0
x1018 0
x1019 0
x1020 1
x1021 0
x1022 1
x1023 0
x1024 0
x1025 0
x1026 0
x1027 1
x1028 0
x1029 0
x1030 1
x1031 1
x1032 0
x1033 1
x1034 1
x1035 1
x1036 1
x1037 1
x1038 0
x1039 1
x1040 1
x1041 1
x1042 1
x1043 1
x1044 1
x1045 0
x1046 1
x1047 1
x1048 1
x1049 0
x1050 1
x1051 0
x1052 1
x1053 1
x1054 1
x1055 1
x1056 0
x1057 1
x1058 0
x1059 0
x1060 1
x1061 1
x1062 0
x1063 1
x1064 1
x1065 1
x1066 1
x1067 1
x1068 0
x1069 1
x1070 0
x1071 1
x1072 1
x1073 1
x1074 1
x1075 0
x1076 1
x1077 1
x1078 1
x1079 0
x1080 1
x1081 0
x1082 1
x1083 1
x1084 1
x1085 1
x1086 0
x1087 1
x1088 0
x1089 1
x1090 0
x1091 0
x1092 1
x1093 0
x1094 1
x1095 1
x1096 1
x1097 1
x1098 1
x1099 0
x1100 1
x1101 1
x1102 1
x1103 1
x1104 1
x1105 1
x1106 0
x1107 1
x1108 1
x1109 1
x1110 0
x1111 1
x1112 0
x1113 1
x1114 1
x1115 1
x1116 1
x1117 0
x1118 1
x1119 0
x1120 1
x1121 1
x1 1
x2 1
x3 0
x4 0
x5 0
x6 0
x7 0
x8 1
x9 0
x10 0
x11 0
x12 0
x13 1
x14 0
x15 1
x16 0
x17 0
x18 0
x19 1
x20 0
x21 0
x22 0
x23 0
x24 0
x25 1
x26 1
x27 0
x28 0
x29 0
x30 0
x31 0
x32 1
x33 0
x34 0
x35 0
x36 1
x37 0
x38 1
x39 0
x40 0
x41 0
x42 0
x43 1
x44 0
x45 0
x46 0
x47 0
x48 0
x49 1
x50 0
x51 0
x52 0
x53 1
x54 0
x55 1
x56 0
x57 0
x58 0
x59 0
x60 1
x61 0
x62 1
x63 0
x64 0
x65 0
